NAME : XML100_1342_13
DIMENSION : 101
NB_CLUSTERS : 3
CLUSTERING_ALG : KMeans
CLUSTERING_PARAMS : k(2)
CLUSTERS
1 0
2 2 3 4 5 9 14 21 26 29 37 39 42 45 47 48 52 55 59 61 73 77 78 81 84 85 95 97
3 1 6 7 8 10 11 12 13 15 16 17 18 19 20 22 23 24 25 27 28 30 31 32 33 34 35 36 38 40 41 43 44 46 49 50 51 53 54 56 57 58 60 62 63 64 65 66 67 68 69 70 71 72 74 75 76 79 80 82 83 86 87 88 89 90 91 92 93 94 96 98 99 100
EOF